\ LP format - for model browsing. Use MPS format to capture full model detail.
Maximize
  3 x_1 + 5 x_2 + 4 x_3 + 10 x_4 + 4 x_5 + 7 x_6 + 9 x_7 + 8 x_8 + 9 x_9
   + x_10 + 4 x_11 + 10 x_12 + 5 x_13 + x_14 + 8 x_15 + 4 x_16 + 9 x_17
   + 9 x_18 + 10 x_19 + 10 x_20
Subject To
 C_1: 2 x_1 + 7 x_2 + 5 x_3 + x_4 + 10 x_5 + 4 x_6 + 8 x_7 + 7 x_8 + 4 x_9
   + 4 x_10 + 7 x_11 + 9 x_12 + 8 x_13 + x_14 + 8 x_15 + x_16 + 7 x_17
   + 8 x_18 + 10 x_19 + 7 x_20 <= 59
 C_2: 10 x_1 + 6 x_2 + 8 x_3 + 5 x_4 + 6 x_5 + 5 x_6 + 8 x_7 + 6 x_8
   + 5 x_9 + 9 x_10 + 5 x_11 + 7 x_12 + 5 x_13 + 9 x_14 + 9 x_15 + 6 x_16
   + 2 x_17 + 8 x_18 + 2 x_19 + 7 x_20 <= 64
 C_3: x_1 + 10 x_2 + 7 x_3 + 8 x_4 + 10 x_5 + 4 x_6 + 8 x_7 + 8 x_8 + 4 x_9
   + 9 x_10 + 7 x_11 + 3 x_12 + 6 x_13 + 6 x_14 + 9 x_15 + 3 x_16 + 3 x_17
   + 8 x_18 + 8 x_19 + 7 x_20 <= 64
 C_4: 6 x_1 + 2 x_2 + 5 x_3 + 2 x_4 + 2 x_5 + 5 x_6 + 9 x_7 + 3 x_8 + 2 x_9
   + 10 x_10 + 2 x_11 + 2 x_12 + 2 x_13 + 8 x_14 + 9 x_15 + x_16 + 4 x_17
   + 8 x_18 + x_19 + 9 x_20 <= 46
 C_5: 7 x_1 + 9 x_2 + 3 x_3 + 4 x_4 + 6 x_5 + 2 x_6 + 7 x_7 + 8 x_8 + x_9
   + 4 x_10 + 7 x_11 + 9 x_12 + 8 x_13 + 3 x_14 + 2 x_15 + 9 x_16 + 8 x_17
   + x_18 + 4 x_19 + 9 x_20 <= 55
Bounds
Binaries
 x_1 x_2 x_3 x_4 x_5 x_6 x_7 x_8 x_9 x_10 x_11 x_12 x_13 x_14 x_15 x_16
 x_17 x_18 x_19 x_20
End
